WARNING: for repeatability, setting FPU to use double precision
============================[ Problem Statistics ]=============================
|                                                                             |
|  Number of variables:         34886                                         |
|  Number of clauses:          217178                                         |
|  Parse time:                   0.05 s                                       |
|                                                                             |
c ============================[ Search Statistics ]==============================
c | Conflicts |          ORIGINAL         |          LEARNT          | Progress |
c |           |    Vars  Clauses Literals |    Limit  Clauses Lit/Cl |          |
c ===============================================================================
c Switched to VSIDS.
c Switched to LRB.
c Switched to VSIDS.
c Switched to LRB.
c Switched to VSIDS.
c Switched to LRB.
c Switched to VSIDS.
c Switched to LRB.
c Switched to VSIDS.
c Switched to LRB.
c Switched to VSIDS.
c Switched to LRB.
c Switched to VSIDS.
c Switched to LRB.
c Switched to VSIDS.
c Switched to LRB.
c Switched to VSIDS.
c Switched to LRB.
c Switched to VSIDS.
c Switched to LRB.
c Switched to VSIDS.
c Switched to LRB.
c Switched to VSIDS.
c Switched to LRB.
c Switched to VSIDS.
c Switched to LRB.
c Switched to VSIDS.
c ===============================================================================
restarts                  : 4187
conflicts                 : 1675614        (1112 /sec)
decisions                 : 12375877       (0.00 % random) (8213 /sec)
propagations              : 3910569359     (2595263 /sec)
conflict literals         : 91550320       (37.19 % deleted)

conflicts w/ DIP found    : 1371468        (81.85 % of conflicts)
conflicts w/ dangerous DIP: 0              (0.00 % of conflicts)
conflicts w/ DIP-learning : 7022           (0.42 % of conflicts)
decisions on ext vars     : 5753           (0.05 % of decisions)
total ext vars            : 989         
tried delete ext vars     : 1           
deleted ext vars          : 1           
max ext vars              : 988         

Memory used               : 178.00 MB
CPU time                  : 1506.81 s
DIP computation time      : 22.5942 s (1.50 % of total time)
ER_sel time               : 1.97059 s
ER_add time               : 0.006074 s
ER_delC time              : 0 s
ER_delV time              : 0.000788 s
ER_sub time               : 2.70517 s
ER_stat time              : 0 s

SATISFIABLE
